NAME : bier127.tsp
COMMENT : Optimal tour for bier127.tsp
TYPE : TOUR
DIMENSION : 127
Total Length: 123963.38696408526
TOUR_SECTION
1
16
7
120
10
3
90
116
60
61
100
66
55
47
49
53
48
118
46
94
112
111
107
127
93
95
123
97
98
101
102
63
119
96
109
88
87
86
85
110
104
125
89
92
99
65
113
64
58
91
62
59
67
73
74
68
71
70
69
75
82
83
126
81
84
117
78
76
77
18
72
8
9
11
114
105
15
106
6
24
23
19
22
4
108
20
17
21
79
80
27
31
12
14
37
36
41
30
26
25
33
29
32
122
28
38
39
42
34
43
40
35
44
103
45
54
57
56
124
52
5
121
51
2
50
115
13
-1
EOF
